# Solution for model r5_t18_m7_8
# Finished Task: 18 / 18
# Makespan: 554.0, Total Distance: 377.0, Total Time: 122.2463
# R O S F
0 0 10 104.0 104.0
1 1 8 146.0 146.0
2 2 15 136.0 136.0
3 3 5 70.0 70.0
4 4 9 160.0 160.0
5 3 17 421.0 443.0
6 1 14 400.0 425.0
7 0 -1 516.0 554.0
8 1 6 293.0 314.0
9 4 19 283.0 307.0
10 0 12 316.0 346.0
11 1 -1 534.0 554.0
12 0 18 393.0 421.0
13 2 -1 472.0 509.0
14 1 22 433.0 463.0
15 2 16 307.0 338.0
16 2 21 369.0 392.0
17 3 20 452.0 481.0
18 0 7 442.0 472.0
19 4 -1 486.0 516.0
20 3 -1 498.0 534.0
21 2 13 403.0 433.0
22 1 11 494.0 523.0
